c A SAT instance generated from a 3-CNF formula that had 24 clauses and 8 variables
p cnf 8 24
-5 2 3 0
2 7 4 0
5 3 1 0
-2 1 3 0
-1 7 2 0
-1 5 -2 0
-1 4 5 0
-7 -8 3 0
2 -4 -6 0
1 -5 8 0
-2 -6 -5 0
2 3 -4 0
-6 -4 -5 0
-8 -7 -1 0
5 -7 3 0
8 -7 6 0
-3 6 -1 0
4 -5 -2 0
-5 -6 -2 0
4 -2 1 0
8 2 -4 0
-3 5 -1 0
-5 -7 2 0
8 -1 6 0
